; generated by Theta
; https://github.com/ftsrg/theta/

(set-logic HORN)

; declarations
(declare-fun main_init_0 ((_ FloatingPoint 11 53) (_ FloatingPoint 8 24) (_ FloatingPoint 8 24) (_ FloatingPoint 11 53) (_ FloatingPoint 11 53) (_ FloatingPoint 8 24) (_ BitVec 32) (_ FloatingPoint 11 53) (_ FloatingPoint 11 53) (_ FloatingPoint 11 53) (_ BitVec 32) (_ BitVec 32) (_ FloatingPoint 11 53) (_ FloatingPoint 11 53) (_ FloatingPoint 11 53) (_ BitVec 32) (_ BitVec 32) (_ BitVec 32) (_ FloatingPoint 11 53) (_ FloatingPoint 8 24) (_ FloatingPoint 11 53)) Bool)
(declare-fun main_final_2 ((_ FloatingPoint 11 53) (_ FloatingPoint 8 24) (_ FloatingPoint 8 24) (_ FloatingPoint 11 53) (_ FloatingPoint 11 53) (_ FloatingPoint 8 24) (_ BitVec 32) (_ FloatingPoint 11 53) (_ FloatingPoint 11 53) (_ FloatingPoint 11 53) (_ BitVec 32) (_ BitVec 32) (_ FloatingPoint 11 53) (_ FloatingPoint 11 53) (_ FloatingPoint 11 53) (_ BitVec 32) (_ BitVec 32) (_ BitVec 32) (_ FloatingPoint 11 53) (_ FloatingPoint 8 24) (_ FloatingPoint 11 53)) Bool)
(declare-fun __loc_198_4 ((_ FloatingPoint 11 53) (_ FloatingPoint 8 24) (_ FloatingPoint 8 24) (_ FloatingPoint 11 53) (_ FloatingPoint 11 53) (_ FloatingPoint 8 24) (_ BitVec 32) (_ FloatingPoint 11 53) (_ FloatingPoint 11 53) (_ FloatingPoint 11 53) (_ BitVec 32) (_ BitVec 32) (_ FloatingPoint 11 53) (_ FloatingPoint 11 53) (_ FloatingPoint 11 53) (_ BitVec 32) (_ BitVec 32) (_ BitVec 32) (_ FloatingPoint 11 53) (_ FloatingPoint 8 24) (_ FloatingPoint 11 53)) Bool)
(declare-fun __loc_201_5 ((_ FloatingPoint 11 53) (_ FloatingPoint 8 24) (_ FloatingPoint 8 24) (_ FloatingPoint 11 53) (_ FloatingPoint 11 53) (_ FloatingPoint 8 24) (_ BitVec 32) (_ FloatingPoint 11 53) (_ FloatingPoint 11 53) (_ FloatingPoint 11 53) (_ BitVec 32) (_ BitVec 32) (_ FloatingPoint 11 53) (_ FloatingPoint 11 53) (_ FloatingPoint 11 53) (_ BitVec 32) (_ BitVec 32) (_ BitVec 32) (_ FloatingPoint 11 53) (_ FloatingPoint 8 24) (_ FloatingPoint 11 53)) Bool)
(declare-fun __loc_210_6 ((_ FloatingPoint 11 53) (_ FloatingPoint 8 24) (_ FloatingPoint 8 24) (_ FloatingPoint 11 53) (_ FloatingPoint 11 53) (_ FloatingPoint 8 24) (_ BitVec 32) (_ FloatingPoint 11 53) (_ FloatingPoint 11 53) (_ FloatingPoint 11 53) (_ BitVec 32) (_ BitVec 32) (_ FloatingPoint 11 53) (_ FloatingPoint 11 53) (_ FloatingPoint 11 53) (_ BitVec 32) (_ BitVec 32) (_ BitVec 32) (_ FloatingPoint 11 53) (_ FloatingPoint 8 24) (_ FloatingPoint 11 53)) Bool)
(declare-fun __loc_213_7 ((_ FloatingPoint 11 53) (_ FloatingPoint 8 24) (_ FloatingPoint 8 24) (_ FloatingPoint 11 53) (_ FloatingPoint 11 53) (_ FloatingPoint 8 24) (_ BitVec 32) (_ FloatingPoint 11 53) (_ FloatingPoint 11 53) (_ FloatingPoint 11 53) (_ BitVec 32) (_ BitVec 32) (_ FloatingPoint 11 53) (_ FloatingPoint 11 53) (_ FloatingPoint 11 53) (_ BitVec 32) (_ BitVec 32) (_ BitVec 32) (_ FloatingPoint 11 53) (_ FloatingPoint 8 24) (_ FloatingPoint 11 53)) Bool)
(declare-fun __loc_236_3 ((_ FloatingPoint 11 53) (_ FloatingPoint 8 24) (_ FloatingPoint 8 24) (_ FloatingPoint 11 53) (_ FloatingPoint 11 53) (_ FloatingPoint 8 24) (_ BitVec 32) (_ FloatingPoint 11 53) (_ FloatingPoint 11 53) (_ FloatingPoint 11 53) (_ BitVec 32) (_ BitVec 32) (_ FloatingPoint 11 53) (_ FloatingPoint 11 53) (_ FloatingPoint 11 53) (_ BitVec 32) (_ BitVec 32) (_ BitVec 32) (_ FloatingPoint 11 53) (_ FloatingPoint 8 24) (_ FloatingPoint 11 53)) Bool)
(declare-fun __loc_72281_8 ((_ FloatingPoint 11 53) (_ FloatingPoint 8 24) (_ FloatingPoint 8 24) (_ FloatingPoint 11 53) (_ FloatingPoint 11 53) (_ FloatingPoint 8 24) (_ BitVec 32) (_ FloatingPoint 11 53) (_ FloatingPoint 11 53) (_ FloatingPoint 11 53) (_ BitVec 32) (_ BitVec 32) (_ FloatingPoint 11 53) (_ FloatingPoint 11 53) (_ FloatingPoint 11 53) (_ BitVec 32) (_ BitVec 32) (_ BitVec 32) (_ FloatingPoint 11 53) (_ FloatingPoint 8 24) (_ FloatingPoint 11 53)) Bool)
(declare-fun __loc_47290_1 ((_ FloatingPoint 11 53) (_ FloatingPoint 8 24) (_ FloatingPoint 8 24) (_ FloatingPoint 11 53) (_ FloatingPoint 11 53) (_ FloatingPoint 8 24) (_ BitVec 32) (_ FloatingPoint 11 53) (_ FloatingPoint 11 53) (_ FloatingPoint 11 53) (_ BitVec 32) (_ BitVec 32) (_ FloatingPoint 11 53) (_ FloatingPoint 11 53) (_ FloatingPoint 11 53) (_ BitVec 32) (_ BitVec 32) (_ BitVec 32) (_ FloatingPoint 11 53) (_ FloatingPoint 8 24) (_ FloatingPoint 11 53)) Bool)
(declare-fun main_error_9 ((_ FloatingPoint 11 53) (_ FloatingPoint 8 24) (_ FloatingPoint 8 24) (_ FloatingPoint 11 53) (_ FloatingPoint 11 53) (_ FloatingPoint 8 24) (_ BitVec 32) (_ FloatingPoint 11 53) (_ FloatingPoint 11 53) (_ FloatingPoint 11 53) (_ BitVec 32) (_ BitVec 32) (_ FloatingPoint 11 53) (_ FloatingPoint 11 53) (_ FloatingPoint 11 53) (_ BitVec 32) (_ BitVec 32) (_ BitVec 32) (_ FloatingPoint 11 53) (_ FloatingPoint 8 24) (_ FloatingPoint 11 53)) Bool)

; facts, rules, queries
(assert (forall ((|call_sin_ret6| (_ FloatingPoint 11 53)) (|main::angleInRadian| (_ FloatingPoint 8 24)) (|main::phaseLead| (_ FloatingPoint 8 24)) (|main::sum2| (_ FloatingPoint 11 53)) (|call_cos_ret7| (_ FloatingPoint 11 53)) (|main::phaseLag| (_ FloatingPoint 8 24)) (|main::temp| (_ BitVec 32)) (|diff::x1| (_ FloatingPoint 11 53)) (|main::sum1| (_ FloatingPoint 11 53)) (|diff::x2| (_ FloatingPoint 11 53)) (|__VERIFIER_assert::cond| (_ BitVec 32)) (|main_ret| (_ BitVec 32)) (|diff_ret| (_ FloatingPoint 11 53)) (|call_diff_ret9| (_ FloatingPoint 11 53)) (|main::count| (_ FloatingPoint 11 53)) (|main::x| (_ BitVec 32)) (|assume_abort_if_not::cond| (_ BitVec 32)) (|radianMeasure::degrees| (_ BitVec 32)) (|radianMeasure_ret| (_ FloatingPoint 11 53)) (|pi| (_ FloatingPoint 8 24)) (|call_radianMeasure_ret5| (_ FloatingPoint 11 53))) (=> true (main_init_0 |call_sin_ret6| |main::angleInRadian| |main::phaseLead| |main::sum2| |call_cos_ret7| |main::phaseLag| |main::temp| |diff::x1| |main::sum1| |diff::x2| |__VERIFIER_assert::cond| |main_ret| |diff_ret| |call_diff_ret9| |main::count| |main::x| |assume_abort_if_not::cond| |radianMeasure::degrees| |radianMeasure_ret| |pi| |call_radianMeasure_ret5|))))
(assert (forall ((|call_sin_ret6| (_ FloatingPoint 11 53)) (|main::angleInRadian| (_ FloatingPoint 8 24)) (|main::phaseLead| (_ FloatingPoint 8 24)) (|main::sum2| (_ FloatingPoint 11 53)) (|call_cos_ret7| (_ FloatingPoint 11 53)) (|main::phaseLag| (_ FloatingPoint 8 24)) (|main::temp| (_ BitVec 32)) (|diff::x1| (_ FloatingPoint 11 53)) (|main::sum1| (_ FloatingPoint 11 53)) (|diff::x2| (_ FloatingPoint 11 53)) (|__VERIFIER_assert::cond| (_ BitVec 32)) (|main_ret_new| (_ BitVec 32)) (|diff_ret| (_ FloatingPoint 11 53)) (|call_diff_ret9| (_ FloatingPoint 11 53)) (|main::count| (_ FloatingPoint 11 53)) (|main::x| (_ BitVec 32)) (|assume_abort_if_not::cond| (_ BitVec 32)) (|radianMeasure::degrees| (_ BitVec 32)) (|radianMeasure_ret| (_ FloatingPoint 11 53)) (|pi| (_ FloatingPoint 8 24)) (|call_radianMeasure_ret5| (_ FloatingPoint 11 53)) (|main_ret| (_ BitVec 32))) (=> (and (__loc_47290_1 |call_sin_ret6| |main::angleInRadian| |main::phaseLead| |main::sum2| |call_cos_ret7| |main::phaseLag| |main::temp| |diff::x1| |main::sum1| |diff::x2| |__VERIFIER_assert::cond| |main_ret| |diff_ret| |call_diff_ret9| |main::count| |main::x| |assume_abort_if_not::cond| |radianMeasure::degrees| |radianMeasure_ret| |pi| |call_radianMeasure_ret5|) (and (not (= |__VERIFIER_assert::cond| #b00000000000000000000000000000000)) (= |main_ret_new| #b00000000000000000000000000000000))) (main_final_2 |call_sin_ret6| |main::angleInRadian| |main::phaseLead| |main::sum2| |call_cos_ret7| |main::phaseLag| |main::temp| |diff::x1| |main::sum1| |diff::x2| |__VERIFIER_assert::cond| |main_ret_new| |diff_ret| |call_diff_ret9| |main::count| |main::x| |assume_abort_if_not::cond| |radianMeasure::degrees| |radianMeasure_ret| |pi| |call_radianMeasure_ret5|))))
(assert (forall ((|call_sin_ret6| (_ FloatingPoint 11 53)) (|main::angleInRadian_new| (_ FloatingPoint 8 24)) (|main::phaseLead| (_ FloatingPoint 8 24)) (|main::sum2| (_ FloatingPoint 11 53)) (|call_cos_ret7| (_ FloatingPoint 11 53)) (|main::phaseLag| (_ FloatingPoint 8 24)) (|main::temp| (_ BitVec 32)) (|diff::x1| (_ FloatingPoint 11 53)) (|main::sum1| (_ FloatingPoint 11 53)) (|diff::x2| (_ FloatingPoint 11 53)) (|__VERIFIER_assert::cond| (_ BitVec 32)) (|main_ret| (_ BitVec 32)) (|diff_ret| (_ FloatingPoint 11 53)) (|call_diff_ret9| (_ FloatingPoint 11 53)) (|main::count| (_ FloatingPoint 11 53)) (|main::x_new| (_ BitVec 32)) (|assume_abort_if_not::cond_new| (_ BitVec 32)) (|radianMeasure::degrees_new| (_ BitVec 32)) (|radianMeasure_ret_new| (_ FloatingPoint 11 53)) (|pi| (_ FloatingPoint 8 24)) (|call_radianMeasure_ret5_new| (_ FloatingPoint 11 53)) (|main::angleInRadian| (_ FloatingPoint 8 24)) (|main::x| (_ BitVec 32)) (|assume_abort_if_not::cond| (_ BitVec 32)) (|radianMeasure::degrees| (_ BitVec 32)) (|radianMeasure_ret| (_ FloatingPoint 11 53)) (|call_radianMeasure_ret5| (_ FloatingPoint 11 53))) (=> (and (__loc_236_3 |call_sin_ret6| |main::angleInRadian| |main::phaseLead| |main::sum2| |call_cos_ret7| |main::phaseLag| |main::temp| |diff::x1| |main::sum1| |diff::x2| |__VERIFIER_assert::cond| |main_ret| |diff_ret| |call_diff_ret9| |main::count| |main::x| |assume_abort_if_not::cond| |radianMeasure::degrees| |radianMeasure_ret| |pi| |call_radianMeasure_ret5|) (and (and (and (and (and (and (and (and (not (= |main::temp| #b00000000000000000000000000000000)) true) true) (= |assume_abort_if_not::cond_new| (ite (and (not (= #b00000000000000000000000000000000 (ite (bvsgt |main::x_new| (bvneg #b00000000000000000000000010110100)) #b00000000000000000000000000000001 #b00000000000000000000000000000000))) (not (= #b00000000000000000000000000000000 (ite (bvslt |main::x_new| #b00000000000000000000000010110100) #b00000000000000000000000000000001 #b00000000000000000000000000000000)))) #b00000000000000000000000000000001 #b00000000000000000000000000000000))) (not (= |assume_abort_if_not::cond_new| #b00000000000000000000000000000000))) (= |radianMeasure::degrees_new| |main::x_new|)) (= |radianMeasure_ret_new| ((_ to_fp 11 53) RNE (fp.mul RNE ((_ to_fp 8 24) RNE |radianMeasure::degrees_new|) (fp.div RNE |pi| ((_ to_fp 8 24) RNE #b00000000000000000000000010110100)))))) (= |call_radianMeasure_ret5_new| |radianMeasure_ret_new|)) (= |main::angleInRadian_new| ((_ to_fp 8 24) RNE |call_radianMeasure_ret5_new|)))) (__loc_198_4 |call_sin_ret6| |main::angleInRadian_new| |main::phaseLead| |main::sum2| |call_cos_ret7| |main::phaseLag| |main::temp| |diff::x1| |main::sum1| |diff::x2| |__VERIFIER_assert::cond| |main_ret| |diff_ret| |call_diff_ret9| |main::count| |main::x_new| |assume_abort_if_not::cond_new| |radianMeasure::degrees_new| |radianMeasure_ret_new| |pi| |call_radianMeasure_ret5_new|))))
(assert (forall ((|call_sin_ret6| (_ FloatingPoint 11 53)) (|main::angleInRadian_new| (_ FloatingPoint 8 24)) (|main::phaseLead_new| (_ FloatingPoint 8 24)) (|main::sum2_new| (_ FloatingPoint 11 53)) (|call_cos_ret7| (_ FloatingPoint 11 53)) (|main::phaseLag_new| (_ FloatingPoint 8 24)) (|main::temp| (_ BitVec 32)) (|diff::x1| (_ FloatingPoint 11 53)) (|main::sum1_new| (_ FloatingPoint 11 53)) (|diff::x2| (_ FloatingPoint 11 53)) (|__VERIFIER_assert::cond| (_ BitVec 32)) (|main_ret| (_ BitVec 32)) (|diff_ret| (_ FloatingPoint 11 53)) (|call_diff_ret9| (_ FloatingPoint 11 53)) (|main::count_new| (_ FloatingPoint 11 53)) (|main::x_new| (_ BitVec 32)) (|assume_abort_if_not::cond_new| (_ BitVec 32)) (|radianMeasure::degrees_new| (_ BitVec 32)) (|radianMeasure_ret_new| (_ FloatingPoint 11 53)) (|pi_new| (_ FloatingPoint 8 24)) (|call_radianMeasure_ret5_new| (_ FloatingPoint 11 53)) (|main::angleInRadian| (_ FloatingPoint 8 24)) (|main::phaseLead| (_ FloatingPoint 8 24)) (|main::sum2| (_ FloatingPoint 11 53)) (|main::phaseLag| (_ FloatingPoint 8 24)) (|main::sum1| (_ FloatingPoint 11 53)) (|main::count| (_ FloatingPoint 11 53)) (|main::x| (_ BitVec 32)) (|assume_abort_if_not::cond| (_ BitVec 32)) (|radianMeasure::degrees| (_ BitVec 32)) (|radianMeasure_ret| (_ FloatingPoint 11 53)) (|pi| (_ FloatingPoint 8 24)) (|call_radianMeasure_ret5| (_ FloatingPoint 11 53))) (=> (and (main_init_0 |call_sin_ret6| |main::angleInRadian| |main::phaseLead| |main::sum2| |call_cos_ret7| |main::phaseLag| |main::temp| |diff::x1| |main::sum1| |diff::x2| |__VERIFIER_assert::cond| |main_ret| |diff_ret| |call_diff_ret9| |main::count| |main::x| |assume_abort_if_not::cond| |radianMeasure::degrees| |radianMeasure_ret| |pi| |call_radianMeasure_ret5|) (and (and (and (and (and (and (and (and (and (and (and (and (and (= |pi_new| (fp #b0  #b10000000 #b10010010000111111010000)) (= |main::phaseLag_new| (fp.div RNE |pi_new| ((_ to_fp 8 24) RNE #b00000000000000000000000000000010)))) (= |main::phaseLead_new| (fp #b0  #b10000000 #b10010010000111111010000))) (= |main::sum1_new| (fp #b0  #b00000000000 #b0000000000000000000000000000000000000000000000000000))) (= |main::sum2_new| (fp #b0  #b00000000000 #b0000000000000000000000000000000000000000000000000000))) (= |main::count_new| (fp #b0  #b00000000000 #b0000000000000000000000000000000000000000000000000000))) true) true) (= |assume_abort_if_not::cond_new| (ite (and (not (= #b00000000000000000000000000000000 (ite (bvsgt |main::x_new| (bvneg #b00000000000000000000000010110100)) #b00000000000000000000000000000001 #b00000000000000000000000000000000))) (not (= #b00000000000000000000000000000000 (ite (bvslt |main::x_new| #b00000000000000000000000010110100) #b00000000000000000000000000000001 #b00000000000000000000000000000000)))) #b00000000000000000000000000000001 #b00000000000000000000000000000000))) (not (= |assume_abort_if_not::cond_new| #b00000000000000000000000000000000))) (= |radianMeasure::degrees_new| |main::x_new|)) (= |radianMeasure_ret_new| ((_ to_fp 11 53) RNE (fp.mul RNE ((_ to_fp 8 24) RNE |radianMeasure::degrees_new|) (fp.div RNE |pi_new| ((_ to_fp 8 24) RNE #b00000000000000000000000010110100)))))) (= |call_radianMeasure_ret5_new| |radianMeasure_ret_new|)) (= |main::angleInRadian_new| ((_ to_fp 8 24) RNE |call_radianMeasure_ret5_new|)))) (__loc_198_4 |call_sin_ret6| |main::angleInRadian_new| |main::phaseLead_new| |main::sum2_new| |call_cos_ret7| |main::phaseLag_new| |main::temp| |diff::x1| |main::sum1_new| |diff::x2| |__VERIFIER_assert::cond| |main_ret| |diff_ret| |call_diff_ret9| |main::count_new| |main::x_new| |assume_abort_if_not::cond_new| |radianMeasure::degrees_new| |radianMeasure_ret_new| |pi_new| |call_radianMeasure_ret5_new|))))
(assert (forall ((|call_sin_ret6| (_ FloatingPoint 11 53)) (|main::angleInRadian| (_ FloatingPoint 8 24)) (|main::phaseLead| (_ FloatingPoint 8 24)) (|main::sum2| (_ FloatingPoint 11 53)) (|call_cos_ret7| (_ FloatingPoint 11 53)) (|main::phaseLag| (_ FloatingPoint 8 24)) (|main::temp| (_ BitVec 32)) (|diff::x1| (_ FloatingPoint 11 53)) (|main::sum1| (_ FloatingPoint 11 53)) (|diff::x2| (_ FloatingPoint 11 53)) (|__VERIFIER_assert::cond| (_ BitVec 32)) (|main_ret| (_ BitVec 32)) (|diff_ret| (_ FloatingPoint 11 53)) (|call_diff_ret9| (_ FloatingPoint 11 53)) (|main::count| (_ FloatingPoint 11 53)) (|main::x| (_ BitVec 32)) (|assume_abort_if_not::cond| (_ BitVec 32)) (|radianMeasure::degrees| (_ BitVec 32)) (|radianMeasure_ret| (_ FloatingPoint 11 53)) (|pi| (_ FloatingPoint 8 24)) (|call_radianMeasure_ret5| (_ FloatingPoint 11 53))) (=> (and (__loc_198_4 |call_sin_ret6| |main::angleInRadian| |main::phaseLead| |main::sum2| |call_cos_ret7| |main::phaseLag| |main::temp| |diff::x1| |main::sum1| |diff::x2| |__VERIFIER_assert::cond| |main_ret| |diff_ret| |call_diff_ret9| |main::count| |main::x| |assume_abort_if_not::cond| |radianMeasure::degrees| |radianMeasure_ret| |pi| |call_radianMeasure_ret5|) true) (__loc_201_5 |call_sin_ret6| |main::angleInRadian| |main::phaseLead| |main::sum2| |call_cos_ret7| |main::phaseLag| |main::temp| |diff::x1| |main::sum1| |diff::x2| |__VERIFIER_assert::cond| |main_ret| |diff_ret| |call_diff_ret9| |main::count| |main::x| |assume_abort_if_not::cond| |radianMeasure::degrees| |radianMeasure_ret| |pi| |call_radianMeasure_ret5|))))
(assert (forall ((|call_sin_ret6| (_ FloatingPoint 11 53)) (|main::angleInRadian| (_ FloatingPoint 8 24)) (|main::phaseLead| (_ FloatingPoint 8 24)) (|main::sum2_new| (_ FloatingPoint 11 53)) (|call_cos_ret7| (_ FloatingPoint 11 53)) (|main::phaseLag| (_ FloatingPoint 8 24)) (|main::temp| (_ BitVec 32)) (|diff::x1| (_ FloatingPoint 11 53)) (|main::sum1| (_ FloatingPoint 11 53)) (|diff::x2| (_ FloatingPoint 11 53)) (|__VERIFIER_assert::cond| (_ BitVec 32)) (|main_ret| (_ BitVec 32)) (|diff_ret| (_ FloatingPoint 11 53)) (|call_diff_ret9| (_ FloatingPoint 11 53)) (|main::count| (_ FloatingPoint 11 53)) (|main::x| (_ BitVec 32)) (|assume_abort_if_not::cond| (_ BitVec 32)) (|radianMeasure::degrees| (_ BitVec 32)) (|radianMeasure_ret| (_ FloatingPoint 11 53)) (|pi| (_ FloatingPoint 8 24)) (|call_radianMeasure_ret5| (_ FloatingPoint 11 53)) (|main::sum2| (_ FloatingPoint 11 53))) (=> (and (__loc_201_5 |call_sin_ret6| |main::angleInRadian| |main::phaseLead| |main::sum2| |call_cos_ret7| |main::phaseLag| |main::temp| |diff::x1| |main::sum1| |diff::x2| |__VERIFIER_assert::cond| |main_ret| |diff_ret| |call_diff_ret9| |main::count| |main::x| |assume_abort_if_not::cond| |radianMeasure::degrees| |radianMeasure_ret| |pi| |call_radianMeasure_ret5|) (= |main::sum2_new| (fp.add RNE |main::sum2| |call_sin_ret6|))) (__loc_210_6 |call_sin_ret6| |main::angleInRadian| |main::phaseLead| |main::sum2_new| |call_cos_ret7| |main::phaseLag| |main::temp| |diff::x1| |main::sum1| |diff::x2| |__VERIFIER_assert::cond| |main_ret| |diff_ret| |call_diff_ret9| |main::count| |main::x| |assume_abort_if_not::cond| |radianMeasure::degrees| |radianMeasure_ret| |pi| |call_radianMeasure_ret5|))))
(assert (forall ((|call_sin_ret6| (_ FloatingPoint 11 53)) (|main::angleInRadian| (_ FloatingPoint 8 24)) (|main::phaseLead| (_ FloatingPoint 8 24)) (|main::sum2| (_ FloatingPoint 11 53)) (|call_cos_ret7| (_ FloatingPoint 11 53)) (|main::phaseLag| (_ FloatingPoint 8 24)) (|main::temp| (_ BitVec 32)) (|diff::x1| (_ FloatingPoint 11 53)) (|main::sum1| (_ FloatingPoint 11 53)) (|diff::x2| (_ FloatingPoint 11 53)) (|__VERIFIER_assert::cond| (_ BitVec 32)) (|main_ret| (_ BitVec 32)) (|diff_ret| (_ FloatingPoint 11 53)) (|call_diff_ret9| (_ FloatingPoint 11 53)) (|main::count| (_ FloatingPoint 11 53)) (|main::x| (_ BitVec 32)) (|assume_abort_if_not::cond| (_ BitVec 32)) (|radianMeasure::degrees| (_ BitVec 32)) (|radianMeasure_ret| (_ FloatingPoint 11 53)) (|pi| (_ FloatingPoint 8 24)) (|call_radianMeasure_ret5| (_ FloatingPoint 11 53))) (=> (and (__loc_210_6 |call_sin_ret6| |main::angleInRadian| |main::phaseLead| |main::sum2| |call_cos_ret7| |main::phaseLag| |main::temp| |diff::x1| |main::sum1| |diff::x2| |__VERIFIER_assert::cond| |main_ret| |diff_ret| |call_diff_ret9| |main::count| |main::x| |assume_abort_if_not::cond| |radianMeasure::degrees| |radianMeasure_ret| |pi| |call_radianMeasure_ret5|) true) (__loc_213_7 |call_sin_ret6| |main::angleInRadian| |main::phaseLead| |main::sum2| |call_cos_ret7| |main::phaseLag| |main::temp| |diff::x1| |main::sum1| |diff::x2| |__VERIFIER_assert::cond| |main_ret| |diff_ret| |call_diff_ret9| |main::count| |main::x| |assume_abort_if_not::cond| |radianMeasure::degrees| |radianMeasure_ret| |pi| |call_radianMeasure_ret5|))))
(assert (forall ((|call_sin_ret6| (_ FloatingPoint 11 53)) (|main::angleInRadian| (_ FloatingPoint 8 24)) (|main::phaseLead| (_ FloatingPoint 8 24)) (|main::sum2| (_ FloatingPoint 11 53)) (|call_cos_ret7| (_ FloatingPoint 11 53)) (|main::phaseLag| (_ FloatingPoint 8 24)) (|main::temp_new| (_ BitVec 32)) (|diff::x1| (_ FloatingPoint 11 53)) (|main::sum1_new| (_ FloatingPoint 11 53)) (|diff::x2| (_ FloatingPoint 11 53)) (|__VERIFIER_assert::cond| (_ BitVec 32)) (|main_ret| (_ BitVec 32)) (|diff_ret| (_ FloatingPoint 11 53)) (|call_diff_ret9| (_ FloatingPoint 11 53)) (|main::count_new| (_ FloatingPoint 11 53)) (|main::x| (_ BitVec 32)) (|assume_abort_if_not::cond| (_ BitVec 32)) (|radianMeasure::degrees| (_ BitVec 32)) (|radianMeasure_ret| (_ FloatingPoint 11 53)) (|pi| (_ FloatingPoint 8 24)) (|call_radianMeasure_ret5| (_ FloatingPoint 11 53)) (|main::temp| (_ BitVec 32)) (|main::sum1| (_ FloatingPoint 11 53)) (|main::count| (_ FloatingPoint 11 53))) (=> (and (__loc_213_7 |call_sin_ret6| |main::angleInRadian| |main::phaseLead| |main::sum2| |call_cos_ret7| |main::phaseLag| |main::temp| |diff::x1| |main::sum1| |diff::x2| |__VERIFIER_assert::cond| |main_ret| |diff_ret| |call_diff_ret9| |main::count| |main::x| |assume_abort_if_not::cond| |radianMeasure::degrees| |radianMeasure_ret| |pi| |call_radianMeasure_ret5|) (and (and (and (= |main::sum1_new| (fp.add RNE |main::sum1| |call_cos_ret7|)) true) true) (= |main::count_new| (fp.add RNE |main::count| (fp #b0  #b01111111111 #b0000000000000000000000000000000000000000000000000000))))) (__loc_236_3 |call_sin_ret6| |main::angleInRadian| |main::phaseLead| |main::sum2| |call_cos_ret7| |main::phaseLag| |main::temp_new| |diff::x1| |main::sum1_new| |diff::x2| |__VERIFIER_assert::cond| |main_ret| |diff_ret| |call_diff_ret9| |main::count_new| |main::x| |assume_abort_if_not::cond| |radianMeasure::degrees| |radianMeasure_ret| |pi| |call_radianMeasure_ret5|))))
(assert (forall ((|call_sin_ret6| (_ FloatingPoint 11 53)) (|main::angleInRadian| (_ FloatingPoint 8 24)) (|main::phaseLead| (_ FloatingPoint 8 24)) (|main::sum2| (_ FloatingPoint 11 53)) (|call_cos_ret7| (_ FloatingPoint 11 53)) (|main::phaseLag| (_ FloatingPoint 8 24)) (|main::temp| (_ BitVec 32)) (|diff::x1_new| (_ FloatingPoint 11 53)) (|main::sum1| (_ FloatingPoint 11 53)) (|diff::x2_new| (_ FloatingPoint 11 53)) (|__VERIFIER_assert::cond| (_ BitVec 32)) (|main_ret| (_ BitVec 32)) (|diff_ret| (_ FloatingPoint 11 53)) (|call_diff_ret9| (_ FloatingPoint 11 53)) (|main::count| (_ FloatingPoint 11 53)) (|main::x| (_ BitVec 32)) (|assume_abort_if_not::cond| (_ BitVec 32)) (|radianMeasure::degrees| (_ BitVec 32)) (|radianMeasure_ret| (_ FloatingPoint 11 53)) (|pi| (_ FloatingPoint 8 24)) (|call_radianMeasure_ret5| (_ FloatingPoint 11 53)) (|diff::x1| (_ FloatingPoint 11 53)) (|diff::x2| (_ FloatingPoint 11 53))) (=> (and (__loc_236_3 |call_sin_ret6| |main::angleInRadian| |main::phaseLead| |main::sum2| |call_cos_ret7| |main::phaseLag| |main::temp| |diff::x1| |main::sum1| |diff::x2| |__VERIFIER_assert::cond| |main_ret| |diff_ret| |call_diff_ret9| |main::count| |main::x| |assume_abort_if_not::cond| |radianMeasure::degrees| |radianMeasure_ret| |pi| |call_radianMeasure_ret5|) (and (and (= |main::temp| #b00000000000000000000000000000000) (= |diff::x1_new| |main::sum1|)) (= |diff::x2_new| |main::sum2|))) (__loc_72281_8 |call_sin_ret6| |main::angleInRadian| |main::phaseLead| |main::sum2| |call_cos_ret7| |main::phaseLag| |main::temp| |diff::x1_new| |main::sum1| |diff::x2_new| |__VERIFIER_assert::cond| |main_ret| |diff_ret| |call_diff_ret9| |main::count| |main::x| |assume_abort_if_not::cond| |radianMeasure::degrees| |radianMeasure_ret| |pi| |call_radianMeasure_ret5|))))
(assert (forall ((|call_sin_ret6| (_ FloatingPoint 11 53)) (|main::angleInRadian| (_ FloatingPoint 8 24)) (|main::phaseLead| (_ FloatingPoint 8 24)) (|main::sum2| (_ FloatingPoint 11 53)) (|call_cos_ret7| (_ FloatingPoint 11 53)) (|main::phaseLag| (_ FloatingPoint 8 24)) (|main::temp| (_ BitVec 32)) (|diff::x1| (_ FloatingPoint 11 53)) (|main::sum1| (_ FloatingPoint 11 53)) (|diff::x2| (_ FloatingPoint 11 53)) (|__VERIFIER_assert::cond_new| (_ BitVec 32)) (|main_ret| (_ BitVec 32)) (|diff_ret_new| (_ FloatingPoint 11 53)) (|call_diff_ret9_new| (_ FloatingPoint 11 53)) (|main::count| (_ FloatingPoint 11 53)) (|main::x| (_ BitVec 32)) (|assume_abort_if_not::cond| (_ BitVec 32)) (|radianMeasure::degrees| (_ BitVec 32)) (|radianMeasure_ret| (_ FloatingPoint 11 53)) (|pi| (_ FloatingPoint 8 24)) (|call_radianMeasure_ret5| (_ FloatingPoint 11 53)) (|__VERIFIER_assert::cond| (_ BitVec 32)) (|diff_ret| (_ FloatingPoint 11 53)) (|call_diff_ret9| (_ FloatingPoint 11 53))) (=> (and (__loc_72281_8 |call_sin_ret6| |main::angleInRadian| |main::phaseLead| |main::sum2| |call_cos_ret7| |main::phaseLag| |main::temp| |diff::x1| |main::sum1| |diff::x2| |__VERIFIER_assert::cond| |main_ret| |diff_ret| |call_diff_ret9| |main::count| |main::x| |assume_abort_if_not::cond| |radianMeasure::degrees| |radianMeasure_ret| |pi| |call_radianMeasure_ret5|) (and (and (and (fp.gt |diff::x1| |diff::x2|) (= |diff_ret_new| (fp.add RNE |diff::x1| (fp.neg |diff::x2|)))) (= |call_diff_ret9_new| |diff_ret_new|)) (= |__VERIFIER_assert::cond_new| (ite (fp.leq |call_diff_ret9_new| (fp.mul RNE |main::count| ((_ to_fp 11 53) RNE #b00000000000000000000000000000010))) #b00000000000000000000000000000001 #b00000000000000000000000000000000)))) (__loc_47290_1 |call_sin_ret6| |main::angleInRadian| |main::phaseLead| |main::sum2| |call_cos_ret7| |main::phaseLag| |main::temp| |diff::x1| |main::sum1| |diff::x2| |__VERIFIER_assert::cond_new| |main_ret| |diff_ret_new| |call_diff_ret9_new| |main::count| |main::x| |assume_abort_if_not::cond| |radianMeasure::degrees| |radianMeasure_ret| |pi| |call_radianMeasure_ret5|))))
(assert (forall ((|call_sin_ret6| (_ FloatingPoint 11 53)) (|main::angleInRadian| (_ FloatingPoint 8 24)) (|main::phaseLead| (_ FloatingPoint 8 24)) (|main::sum2| (_ FloatingPoint 11 53)) (|call_cos_ret7| (_ FloatingPoint 11 53)) (|main::phaseLag| (_ FloatingPoint 8 24)) (|main::temp| (_ BitVec 32)) (|diff::x1| (_ FloatingPoint 11 53)) (|main::sum1| (_ FloatingPoint 11 53)) (|diff::x2| (_ FloatingPoint 11 53)) (|__VERIFIER_assert::cond_new| (_ BitVec 32)) (|main_ret| (_ BitVec 32)) (|diff_ret_new| (_ FloatingPoint 11 53)) (|call_diff_ret9_new| (_ FloatingPoint 11 53)) (|main::count| (_ FloatingPoint 11 53)) (|main::x| (_ BitVec 32)) (|assume_abort_if_not::cond| (_ BitVec 32)) (|radianMeasure::degrees| (_ BitVec 32)) (|radianMeasure_ret| (_ FloatingPoint 11 53)) (|pi| (_ FloatingPoint 8 24)) (|call_radianMeasure_ret5| (_ FloatingPoint 11 53)) (|__VERIFIER_assert::cond| (_ BitVec 32)) (|diff_ret| (_ FloatingPoint 11 53)) (|call_diff_ret9| (_ FloatingPoint 11 53))) (=> (and (__loc_72281_8 |call_sin_ret6| |main::angleInRadian| |main::phaseLead| |main::sum2| |call_cos_ret7| |main::phaseLag| |main::temp| |diff::x1| |main::sum1| |diff::x2| |__VERIFIER_assert::cond| |main_ret| |diff_ret| |call_diff_ret9| |main::count| |main::x| |assume_abort_if_not::cond| |radianMeasure::degrees| |radianMeasure_ret| |pi| |call_radianMeasure_ret5|) (and (and (and (not (fp.gt |diff::x1| |diff::x2|)) (= |diff_ret_new| (fp.add RNE |diff::x2| (fp.neg |diff::x1|)))) (= |call_diff_ret9_new| |diff_ret_new|)) (= |__VERIFIER_assert::cond_new| (ite (fp.leq |call_diff_ret9_new| (fp.mul RNE |main::count| ((_ to_fp 11 53) RNE #b00000000000000000000000000000010))) #b00000000000000000000000000000001 #b00000000000000000000000000000000)))) (__loc_47290_1 |call_sin_ret6| |main::angleInRadian| |main::phaseLead| |main::sum2| |call_cos_ret7| |main::phaseLag| |main::temp| |diff::x1| |main::sum1| |diff::x2| |__VERIFIER_assert::cond_new| |main_ret| |diff_ret_new| |call_diff_ret9_new| |main::count| |main::x| |assume_abort_if_not::cond| |radianMeasure::degrees| |radianMeasure_ret| |pi| |call_radianMeasure_ret5|))))
(assert (forall ((|call_sin_ret6| (_ FloatingPoint 11 53)) (|main::angleInRadian| (_ FloatingPoint 8 24)) (|main::phaseLead| (_ FloatingPoint 8 24)) (|main::sum2| (_ FloatingPoint 11 53)) (|call_cos_ret7| (_ FloatingPoint 11 53)) (|main::phaseLag| (_ FloatingPoint 8 24)) (|main::temp| (_ BitVec 32)) (|diff::x1| (_ FloatingPoint 11 53)) (|main::sum1| (_ FloatingPoint 11 53)) (|diff::x2| (_ FloatingPoint 11 53)) (|__VERIFIER_assert::cond| (_ BitVec 32)) (|main_ret| (_ BitVec 32)) (|diff_ret| (_ FloatingPoint 11 53)) (|call_diff_ret9| (_ FloatingPoint 11 53)) (|main::count| (_ FloatingPoint 11 53)) (|main::x| (_ BitVec 32)) (|assume_abort_if_not::cond| (_ BitVec 32)) (|radianMeasure::degrees| (_ BitVec 32)) (|radianMeasure_ret| (_ FloatingPoint 11 53)) (|pi| (_ FloatingPoint 8 24)) (|call_radianMeasure_ret5| (_ FloatingPoint 11 53))) (=> (and (__loc_47290_1 |call_sin_ret6| |main::angleInRadian| |main::phaseLead| |main::sum2| |call_cos_ret7| |main::phaseLag| |main::temp| |diff::x1| |main::sum1| |diff::x2| |__VERIFIER_assert::cond| |main_ret| |diff_ret| |call_diff_ret9| |main::count| |main::x| |assume_abort_if_not::cond| |radianMeasure::degrees| |radianMeasure_ret| |pi| |call_radianMeasure_ret5|) (= |__VERIFIER_assert::cond| #b00000000000000000000000000000000)) (main_error_9 |call_sin_ret6| |main::angleInRadian| |main::phaseLead| |main::sum2| |call_cos_ret7| |main::phaseLag| |main::temp| |diff::x1| |main::sum1| |diff::x2| |__VERIFIER_assert::cond| |main_ret| |diff_ret| |call_diff_ret9| |main::count| |main::x| |assume_abort_if_not::cond| |radianMeasure::degrees| |radianMeasure_ret| |pi| |call_radianMeasure_ret5|))))
(assert (forall ((|call_sin_ret6| (_ FloatingPoint 11 53)) (|main::angleInRadian| (_ FloatingPoint 8 24)) (|main::phaseLead| (_ FloatingPoint 8 24)) (|main::sum2| (_ FloatingPoint 11 53)) (|call_cos_ret7| (_ FloatingPoint 11 53)) (|main::phaseLag| (_ FloatingPoint 8 24)) (|main::temp| (_ BitVec 32)) (|diff::x1| (_ FloatingPoint 11 53)) (|main::sum1| (_ FloatingPoint 11 53)) (|diff::x2| (_ FloatingPoint 11 53)) (|__VERIFIER_assert::cond| (_ BitVec 32)) (|main_ret| (_ BitVec 32)) (|diff_ret| (_ FloatingPoint 11 53)) (|call_diff_ret9| (_ FloatingPoint 11 53)) (|main::count| (_ FloatingPoint 11 53)) (|main::x| (_ BitVec 32)) (|assume_abort_if_not::cond| (_ BitVec 32)) (|radianMeasure::degrees| (_ BitVec 32)) (|radianMeasure_ret| (_ FloatingPoint 11 53)) (|pi| (_ FloatingPoint 8 24)) (|call_radianMeasure_ret5| (_ FloatingPoint 11 53))) (=> (main_error_9 |call_sin_ret6| |main::angleInRadian| |main::phaseLead| |main::sum2| |call_cos_ret7| |main::phaseLag| |main::temp| |diff::x1| |main::sum1| |diff::x2| |__VERIFIER_assert::cond| |main_ret| |diff_ret| |call_diff_ret9| |main::count| |main::x| |assume_abort_if_not::cond| |radianMeasure::degrees| |radianMeasure_ret| |pi| |call_radianMeasure_ret5|) false)))

(check-sat)
(exit)